\* NBA *\
Maximize
Objective: 30.67 ("D'Angelo_Russell",_'LAL')_PG_36312731
 + 23.53 ('Al_Horford',_'BOS')_C_36312738
 + 50.07 ('Anthony_Davis',_'LAL')_C_36312719
 + 44.04 ('Anthony_Edwards',_'MIN')_SG_36312722
 + 29.81 ('Austin_Reaves',_'LAL')_SG_36312732
 + 1.57 ('Bronny_James',_'LAL')_PG_36312762
 + 13.52 ('Cameron_Payne',_'NYK')_SG_36312748
 + 12.89 ('Dalton_Knecht',_'LAL')_SF_36312755
 + 31.25 ('Derrick_White',_'BOS')_SG_36312730
 + 24.17 ('Donte_DiVincenzo',_'MIN')_SG_36312739
 + 8.16 ('Gabe_Vincent',_'LAL')_PG_36312757
 + 18.61 ('Jaden_McDaniels',_'MIN')_SF_36312737
 + 46.09 ('Jalen_Brunson',_'NYK')_PG_36312723
 + 2.89 ('Jalen_Hood#Schifino',_'LAL')_PG_36312779
 + 9.61 ('Jaxson_Hayes',_'LAL')_C_36312761
 + 38.97 ('Jaylen_Brown',_'BOS')_SF_36312724
 + 49.46 ('Jayson_Tatum',_'BOS')_PF_36312720
 + 9.26 ('Jericho_Sims',_'NYK')_C_36312767
 + 4.24 ('Joe_Ingles',_'MIN')_SF_36312760
 + 28.8 ('Josh_Hart',_'NYK')_SF_36312734
 + 5.33 ('Josh_Minott',_'MIN')_SG_36312783
 + 29.2 ('Jrue_Holiday',_'BOS')_PG_36312733
 + 35.07 ('Julius_Randle',_'MIN')_PF_36312725
 + 42.07 ('Karl#Anthony_Towns',_'NYK')_C_36312726
 + 47.68 ('LeBron_James',_'LAL')_SF_36312721
 + 14.77 ('Luke_Kornet',_'BOS')_C_36312754
 + 12.59 ('Max_Christie',_'LAL')_SG_36312745
 + 28.34 ('Mikal_Bridges',_'NYK')_SG_36312728
 + 24.35 ('Mike_Conley',_'MIN')_PG_36312735
 + 17.92 ('Miles_McBride',_'NYK')_SG_36312759
 + 24.44 ('Naz_Reid',_'MIN')_PF_36312741
 + 13.78 ('Nickeil_Alexander#Walker',_'MIN')_SG_36312753
 + 25.88 ('OG_Anunoby',_'NYK')_PF_36312736
 + 2.98 ('Pacome_Dadiet',_'NYK')_SF_36312780
 + 19.49 ('Payton_Pritchard',_'BOS')_PG_36312742
 + 34.8 ('Rudy_Gobert',_'MIN')_C_36312729
 + 22.04 ('Rui_Hachimura',_'LAL')_PF_36312740
 + 15.64 ('Sam_Hauser',_'BOS')_PF_36312746
 + 9.67 ('Xavier_Tillman',_'BOS')_C_36312750
Subject To
Must_have_1_C: ('Al_Horford',_'BOS')_C_36312738
 + ('Anthony_Davis',_'LAL')_C_36312719 + ('Jaxson_Hayes',_'LAL')_C_36312761
 + ('Jericho_Sims',_'NYK')_C_36312767
 + ('Karl#Anthony_Towns',_'NYK')_C_36312726
 + ('Luke_Kornet',_'BOS')_C_36312754 + ('Rudy_Gobert',_'MIN')_C_36312729
 + ('Xavier_Tillman',_'BOS')_C_36312750 = 1
Must_have_1_PF: ('Jayson_Tatum',_'BOS')_PF_36312720
 + ('Julius_Randle',_'MIN')_PF_36312725 + ('Naz_Reid',_'MIN')_PF_36312741
 + ('OG_Anunoby',_'NYK')_PF_36312736 + ('Rui_Hachimura',_'LAL')_PF_36312740
 + ('Sam_Hauser',_'BOS')_PF_36312746 = 1
Must_have_1_PG: ("D'Angelo_Russell",_'LAL')_PG_36312731
 + ('Bronny_James',_'LAL')_PG_36312762 + ('Gabe_Vincent',_'LAL')_PG_36312757
 + ('Jalen_Brunson',_'NYK')_PG_36312723
 + ('Jalen_Hood#Schifino',_'LAL')_PG_36312779
 + ('Jrue_Holiday',_'BOS')_PG_36312733 + ('Mike_Conley',_'MIN')_PG_36312735
 + ('Payton_Pritchard',_'BOS')_PG_36312742 = 1
Must_have_1_SF: ('Dalton_Knecht',_'LAL')_SF_36312755
 + ('Jaden_McDaniels',_'MIN')_SF_36312737
 + ('Jaylen_Brown',_'BOS')_SF_36312724 + ('Joe_Ingles',_'MIN')_SF_36312760
 + ('Josh_Hart',_'NYK')_SF_36312734 + ('LeBron_James',_'LAL')_SF_36312721
 + ('Pacome_Dadiet',_'NYK')_SF_36312780 = 1
Must_have_1_SG: ('Anthony_Edwards',_'MIN')_SG_36312722
 + ('Austin_Reaves',_'LAL')_SG_36312732 + ('Cameron_Payne',_'NYK')_SG_36312748
 + ('Derrick_White',_'BOS')_SG_36312730
 + ('Donte_DiVincenzo',_'MIN')_SG_36312739
 + ('Josh_Minott',_'MIN')_SG_36312783 + ('Max_Christie',_'LAL')_SG_36312745
 + ('Mikal_Bridges',_'NYK')_SG_36312728 + ('Miles_McBride',_'NYK')_SG_36312759
 + ('Nickeil_Alexander#Walker',_'MIN')_SG_36312753 = 1
Binaries
("D'Angelo_Russell",_'LAL')_PG_36312731
('Al_Horford',_'BOS')_C_36312738
('Anthony_Davis',_'LAL')_C_36312719
('Anthony_Edwards',_'MIN')_SG_36312722
('Austin_Reaves',_'LAL')_SG_36312732
('Bronny_James',_'LAL')_PG_36312762
('Cameron_Payne',_'NYK')_SG_36312748
('Dalton_Knecht',_'LAL')_SF_36312755
('Derrick_White',_'BOS')_SG_36312730
('Donte_DiVincenzo',_'MIN')_SG_36312739
('Gabe_Vincent',_'LAL')_PG_36312757
('Jaden_McDaniels',_'MIN')_SF_36312737
('Jalen_Brunson',_'NYK')_PG_36312723
('Jalen_Hood#Schifino',_'LAL')_PG_36312779
('Jaxson_Hayes',_'LAL')_C_36312761
('Jaylen_Brown',_'BOS')_SF_36312724
('Jayson_Tatum',_'BOS')_PF_36312720
('Jericho_Sims',_'NYK')_C_36312767
('Joe_Ingles',_'MIN')_SF_36312760
('Josh_Hart',_'NYK')_SF_36312734
('Josh_Minott',_'MIN')_SG_36312783
('Jrue_Holiday',_'BOS')_PG_36312733
('Julius_Randle',_'MIN')_PF_36312725
('Karl#Anthony_Towns',_'NYK')_C_36312726
('LeBron_James',_'LAL')_SF_36312721
('Luke_Kornet',_'BOS')_C_36312754
('Max_Christie',_'LAL')_SG_36312745
('Mikal_Bridges',_'NYK')_SG_36312728
('Mike_Conley',_'MIN')_PG_36312735
('Miles_McBride',_'NYK')_SG_36312759
('Naz_Reid',_'MIN')_PF_36312741
('Nickeil_Alexander#Walker',_'MIN')_SG_36312753
('OG_Anunoby',_'NYK')_PF_36312736
('Pacome_Dadiet',_'NYK')_SF_36312780
('Payton_Pritchard',_'BOS')_PG_36312742
('Rudy_Gobert',_'MIN')_C_36312729
('Rui_Hachimura',_'LAL')_PF_36312740
('Sam_Hauser',_'BOS')_PF_36312746
('Xavier_Tillman',_'BOS')_C_36312750
End
